 
 $contrl scftyp=mcscf                                                
 runtyp=energy maxit=100
 icharg=1 mult=1
 fstint=.t. gencon=.t.
 exetyp=run
 $end
 
 $system timlim=99000 mwords=300
 nojac=1 kdiag=0 $end
 
 $smp csmtx=.t. call64=1 $end
 
 $moorth nostf=1 nozero=1 tole=0 tolz=0 $end
 
 $mcscf cistep=guga fullnr=.f. istate=1 acurcy=1.0e-8 engtol=1.0e-11
 soscf=.t. maxit=50 $end
 
 $trans dirtrf=.f. cuttrf=1.0e-10
 aoints=dist altpar=.t.
 mptran=2 mode=112 $end
 
 $drt nmcc=76 ndoc=6 nalp=0 nval=6 fors=.t. $end
 
 $gugdia nstate=3 itermx=100 cvgtol=1.0e-6 $end
 $gugdm2 cutoff=1.0e-11 wstate(1)=1,1,1 $end
 $gugem pack2=.t. cutoff=1.0e-11 $end
 
 $basis gbasis=n31 ngauss=6 ndfunc=1 npfunc=0
 diffsp=.f. diffs=.f. $end
 $guess guess=moread norb=88 $end
 !norder=1 iorder(81)=72 iorder(72)=81 $end

$DATA
point charges cloud
C1
C   6.0   2.038614  2.038614  2.038614 
N   7.0   1.247681  1.247681  1.247681 
H   1.0   2.787968  2.787968  2.787968 
H   1.0   2.529758  2.529758  2.529758 
H   1.0   1.306070  1.306070  1.306070 
C   6.0   0.695371  0.695371  0.695371 
C   6.0   0.898515  0.898515  0.898515 
C   6.0  -0.265228 -0.265228 -0.265228 
C   6.0  -0.358881 -0.358881 -0.358881 
C   6.0  -0.223047 -0.223047 -0.223047 
C   6.0   0.148673  0.148673  0.148673 
C   6.0  -0.038198 -0.038198 -0.038198 
C   6.0   0.158900  0.158900  0.158900 
C   6.0  -0.173430 -0.173430 -0.173430 
C   6.0   0.105662  0.105662  0.105662 
C   6.0  -0.166178 -0.166178 -0.166178 
C   6.0   0.138106  0.138106  0.138106 
C   6.0  -0.110874 -0.110874 -0.110874 
C   6.0   0.239667  0.239667  0.239667 
C   6.0   0.826932  0.826932  0.826932 
C   6.0   2.091907  2.091907  2.091907 
C   6.0  -0.264116 -0.264116 -0.264116 
C   6.0  -0.550191 -0.550191 -0.550191 
C   6.0  -0.836218 -0.836218 -0.836218 
C   6.0  -0.670334 -0.670334 -0.670334 
H   1.0   1.796045  1.796045  1.796045 
H   1.0   1.076895  1.076895  1.076895 
H   1.0  -0.123675 -0.123675 -0.123675 
H   1.0  -1.194428 -1.194428 -1.194428 
H   1.0   0.422251  0.422251  0.422251 
H   1.0  -1.306079 -1.306079 -1.306079 
H   1.0  -0.443086 -0.443086 -0.443086 
H   1.0   0.579375  0.579375  0.579375 
H   1.0   0.557389  0.557389  0.557389 
H   1.0  -0.636788 -0.636788 -0.636788 
H   1.0   0.564076  0.564076  0.564076 
H   1.0   0.057597  0.057597  0.057597 
H   1.0   0.983661  0.983661  0.983661 
H   1.0   2.084338  2.084338  2.084338 
H   1.0   2.744737  2.744737  2.744737 
H   1.0   2.533054  2.533054  2.533054 
H   1.0  -1.231541 -1.231541 -1.231541 
H   1.0  -0.438367 -0.438367 -0.438367 
H   1.0   0.157608  0.157608  0.157608 
H   1.0  -1.585434 -1.585434 -1.585434 
H   1.0  -0.431294 -0.431294 -0.431294 
H   1.0   0.098630  0.098630  0.098630 
H   1.0  -1.899097 -1.899097 -1.899097 
H   1.0  -0.783741 -0.783741 -0.783741 
H   1.0  -0.357995 -0.357995 -0.357995 
H   1.0  -1.559760 -1.559760 -1.559760 
H   1.0  -0.981468 -0.981468 -0.981468 
H   1.0   0.089604  0.089604  0.089604 
H   1.0   1.427874  1.427874  1.427874 
$END
$VEC
 $DATA
 qmmm chgs cloud                                                                
C1       0
C1          6.0      2.0230900000     -8.9881870000     -3.9518820000
   N31        6
   D          1
     1         0.8000000000  1.00000000
           
N2          7.0      1.3015770000     -8.0393940000     -3.1138940000
   N31        6
   D          1
     1         0.8000000000  1.00000000
           
H3          1.0      2.7946330000     -9.4323430000     -3.3273610000
   N31        6
           
H4          1.0      2.4946240000     -8.4651470000     -4.7721660000
   N31        6
           
H5          1.0      1.5083400000     -8.1565360000     -2.1107520000
   N31        6
           
C6          6.0      0.6398770000      1.8034070000      2.8794720000
   N31        6
   D          1
     1         0.8000000000  1.00000000
           
C7          6.0      0.8614020000      2.7704240000      4.0543530000
   N31        6
   D          1
     1         0.8000000000  1.00000000
           
C8          6.0     -0.3002770000      3.7262600000      4.2399490000
   N31        6
   D          1
     1         0.8000000000  1.00000000
           
C9          6.0     -0.3642210000      4.6308610000      3.0251810000
   N31        6
   D          1
     1         0.8000000000  1.00000000
           
C10         6.0     -0.2378570000      3.8894010000      1.7299420000
   N31        6
   D          1
     1         0.8000000000  1.00000000
           
C11         6.0      0.1018930000      2.5579610000      1.6623940000
   N31        6
   D          1
     1         0.8000000000  1.00000000
           
C12         6.0     -0.1078390000      1.9047940000      0.3973300000
   N31        6
   D          1
     1         0.8000000000  1.00000000
           
C13         6.0      0.0697980000      0.5832570000      0.0800240000
   N31        6
   D          1
     1         0.8000000000  1.00000000
           
C14         6.0     -0.2765770000     -0.0050520000     -1.1716390000
   N31        6
   D          1
     1         0.8000000000  1.00000000
           
C15         6.0      0.0386300000     -1.3494780000     -1.2917770000
   N31        6
   D          1
     1         0.8000000000  1.00000000
           
C16         6.0     -0.2049910000     -2.2089190000     -2.3709660000
   N31        6
   D          1
     1         0.8000000000  1.00000000
           
C17         6.0      0.1680910000     -3.5335040000     -2.2420180000
   N31        6
   D          1
     1         0.8000000000  1.00000000
           
C18         6.0      0.0507170000     -4.5577040000     -3.1936520000
   N31        6
   D          1
     1         0.8000000000  1.00000000
           
C19         6.0      0.4897350000     -5.8166100000     -2.7703400000
   N31        6
   D          1
     1         0.8000000000  1.00000000
           
C20         6.0      0.7998470000     -6.8957680000     -3.5776200000
   N31        6
   D          1
     1         0.8000000000  1.00000000
           
C21         6.0      2.0265170000      1.2136150000      2.5654230000
   N31        6
   D          1
     1         0.8000000000  1.00000000
           
C22         6.0     -0.3214390000      0.6958890000      3.3381700000
   N31        6
   D          1
     1         0.8000000000  1.00000000
           
C23         6.0     -0.5531970000      4.7266480000      0.5218510000
   N31        6
   D          1
     1         0.8000000000  1.00000000
           
C24         6.0     -0.9800090000      0.7758620000     -2.2405510000
   N31        6
   D          1
     1         0.8000000000  1.00000000
           
C25         6.0     -0.5316710000     -4.3057540000     -4.5553870000
   N31        6
   D          1
     1         0.8000000000  1.00000000
           
H26         1.0      1.7664200000      3.3664440000      3.8533070000
   N31        6
           
H27         1.0      1.0489900000      2.1785750000      4.9642430000
   N31        6
           
H28         1.0     -0.1724200000      4.3191020000      5.1562760000
   N31        6
           
H29         1.0     -1.2412280000      3.1687550000      4.3389140000
   N31        6
           
H30         1.0      0.4357530000      5.3854610000      3.0675720000
   N31        6
           
H31         1.0     -1.3071560000      5.1983180000      2.9953460000
   N31        6
           
H32         1.0     -0.5384480000      2.5250240000     -0.3879840000
   N31        6
           
H33         1.0      0.4975260000     -0.1019060000      0.8073870000
   N31        6
           
H34         1.0      0.5160290000     -1.8135370000     -0.4232570000
   N31        6
           
H35         1.0     -0.6811040000     -1.8447730000     -3.2837470000
   N31        6
           
H36         1.0      0.6226840000     -3.8093820000     -1.2860400000
   N31        6
           
H37         1.0      0.6870170000     -5.9357170000     -1.7031100000
   N31        6
           
H38         1.0      0.7088580000     -6.8424370000     -4.6648210000
   N31        6
           
H39         1.0      2.0030000000      0.3634840000      1.8785350000
   N31        6
           
H40         1.0      2.6750420000      1.9887420000      2.1375320000
   N31        6
           
H41         1.0      2.4757840000      0.8638540000      3.5070230000
   N31        6
           
H42         1.0     -1.2830220000      1.1153590000      3.6541170000
   N31        6
           
H43         1.0     -0.5207820000     -0.0397580000      2.5549170000
   N31        6
           
H44         1.0      0.1177600000      0.1673280000      4.1964600000
   N31        6
           
H45         1.0     -1.6149890000      4.6331800000      0.2503820000
   N31        6
           
H46         1.0     -0.3598270000      5.7764160000      0.7702980000
   N31        6
           
H47         1.0      0.0588600000      4.4735940000     -0.3478820000
   N31        6
           
H48         1.0     -1.9938560000      1.0480710000     -1.9137930000
   N31        6
           
H49         1.0     -0.4490030000      1.7118460000     -2.4551710000
   N31        6
           
H50         1.0     -1.0564690000      0.2100880000     -3.1734400000
   N31        6
           
H51         1.0     -1.6304000000     -4.3337230000     -4.4948160000
   N31        6
           
H52         1.0     -0.2452040000     -3.3189620000     -4.9370390000
   N31        6
           
H53         1.0     -0.2138230000     -5.0584260000     -5.2859080000
   N31        6
           
H54         1.0      1.3719410000     -9.7912160000     -4.3587220000
   N31        6
           
 $END      
--- NATURAL ORBITALS OF MCSCF --- GENERATED AT 13:36:49 20-JAN-2021    
 qmmm chgs cloud                                                                
E(MCSCF)=     -886.3997517024, 17 ITERS, E(NUC)= 1627.9604722168
 $VEC   
 1  1 8.83945135E-06-1.40362350E-04 1.82818452E-04-1.71170209E-04-1.40982075E-04
 1  2-1.24502451E-03 8.80590625E-05-4.25832235E-04-1.46420662E-04 7.48591369E-05
 1  3 4.02792599E-05 1.23777325E-04-1.95523954E-06-1.90519177E-05 4.06762939E-06
 1  4-9.94995055E-01-2.51357857E-02-3.65442767E-04-4.25351200E-04 1.97244451E-04
 1  5 3.21024007E-03-3.03496431E-05 4.63744949E-04-6.23289783E-04 3.40418006E-03
 1  6 3.34816392E-03 3.41014883E-03-2.20751617E-06-6.28071911E-05 5.68461829E-05
 1  7 8.49278524E-05 1.55258443E-04 1.02482197E-04 2.87381532E-04-2.65288016E-04
 1  8-2.23508364E-04 1.71634909E-07 1.13334535E-06-9.81491137E-08 1.97303112E-07
 1  9 8.80126015E-07-1.36060743E-05 3.00590305E-07-7.24243784E-06-1.04014758E-06
 1 10 1.73816605E-07-1.42964046E-07-3.09393723E-08 1.02752703E-07-1.08006217E-07
 1 11-9.13561639E-08-7.36736218E-08-3.58938467E-07-8.15952089E-08-1.81923418E-07
 1 12-2.89795858E-07 6.05768335E-06-6.64199989E-07-1.16117022E-06-1.73864970E-06
 1 13 3.03918200E-08 5.00357153E-08 7.21626255E-08 4.59257605E-08 1.60418857E-08
 1 14 2.21070094E-07 6.72747214E-09 2.09361238E-08 1.22516611E-07 1.82460023E-07
 1 15-1.89598660E-07-2.22245713E-07 3.22978797E-07 5.50340868E-07-1.07855060E-07
 1 16-2.60594656E-08-3.92558168E-08 4.95562127E-08 2.01655462E-08 4.43777969E-08
 1 17 3.22566476E-09 9.50722814E-08 6.36720575E-07-1.00591360E-06-5.03551600E-07
 1 18-3.49906620E-08-1.13983654E-06-1.41801231E-06 2.89132750E-07-1.53362613E-07
 1 19 2.52620494E-07 8.41098914E-08 6.41548170E-08-3.68545717E-08 3.76784388E-08
 1 20-5.40141902E-08-1.79369428E-08-3.14792426E-07-1.44131277E-06-8.28342828E-07
 1 21 1.37702028E-07 1.06007535E-05-1.90334373E-06-1.50470982E-06-5.92031822E-06
 1 22 5.47635221E-08 7.47791601E-08 1.44211770E-07-4.62100632E-08-9.28763709E-08
 1 23 1.88884502E-07 2.07014715E-07 1.14937428E-06-2.16482019E-07 6.12383756E-07
 1 24-3.93343264E-07-2.61122985E-05 5.89303058E-06-1.66042536E-06 2.26269437E-05
 1 25 2.71291683E-07-3.05167342E-07-3.71371371E-07 1.21656228E-08-1.66216026E-07
 1 26-2.80070007E-07 4.47558537E-07 2.51483251E-06 9.78912029E-07 3.27608731E-07
 1 27-1.55210819E-06-1.14518612E-05 6.59748248E-06 2.91503657E-05 3.11957981E-05
 1 28 1.00844604E-06-1.19868705E-06 1.19110598E-06 4.72036864E-07-1.18248380E-08
 1 29-2.04427759E-07-4.79484921E-07-3.42914217E-06-1.00421963E-06-2.24513495E-06
 1 30-8.54158107E-07 8.09357617E-05-8.46405223E-06 3.13316389E-07-2.21280937E-05
 1 31-4.74694517E-07 1.35845563E-06 6.72919222E-07 6.98735389E-07 6.36938978E-08
 1 32 2.01915934E-06 1.44277900E-06 9.50969479E-06-3.83786597E-06 8.68056876E-07
 1 33 5.67523860E-06-1.84682465E-04-4.54506754E-05 8.12579020E-05-4.25579723E-05
 1 34 1.85015248E-06-3.58710199E-06-1.50331966E-07 1.17663704E-06-6.32709927E-07
 1 35-2.27818345E-06 1.23929836E-07 6.09059222E-07-2.21443784E-07-7.66105407E-06
 1 36 8.15549236E-07 8.77342855E-05-3.94240221E-05 1.73597686E-04 2.23416671E-05
 1 37 9.18653187E-07 2.25601077E-06-2.23235243E-06-2.08516144E-06-1.07169525E-06
 1 38-1.90379243E-06-2.35087778E-06-1.77788398E-05 5.52829892E-06-8.53160082E-07
 1 39-1.12563236E-06 2.59007039E-04 4.10284842E-05-1.50666018E-04-8.89865109E-06
 1 40-2.90103856E-06 8.51539536E-06-1.82405701E-06-2.65616976E-06 4.08771063E-07
 1 41 3.05140288E-06 5.80701659E-06 3.96106296E-05 5.73098195E-06 1.19596489E-05
 1 42-4.24279515E-06-6.96733749E-04 1.17956344E-04 6.28330435E-05 3.05221014E-04
 1 43 9.91290321E-06-1.01278642E-05-3.22198904E-06 1.71773883E-08-4.15550886E-06
 1 44-1.66210398E-05-3.80131734E-07-1.92913291E-05-6.63395964E-06-2.54482919E-05
 1 45-2.14138713E-05 5.55987408E-04 4.68013733E-06 3.82569632E-04 3.57354284E-04
 1 46-1.71123538E-06 8.73005034E-06 1.09303199E-05 1.18745598E-05 3.15075305E-08
 1 47 2.27048988E-05-7.86224875E-06-2.44225047E-05-3.82053823E-05-3.29296044E-05
 1 48 2.57300882E-06 4.80108522E-04 1.35451445E-04-4.99480211E-04-1.03588862E-05
 1 49 1.21171847E-05 3.26821564E-05-3.59364631E-05-1.25295410E-05-5.26455364E-06
 1 50-3.69508762E-06-2.32099983E-05-1.85954783E-04-1.93046855E-04 7.32723059E-05
 1 51-1.54609619E-05-2.12940652E-03-5.49304190E-04 7.72975481E-04-6.24512633E-04
 1 52 6.82175612E-05 1.69229874E-04 8.73665827E-05-3.34723695E-05 8.01434731E-07
 1 53-6.27902032E-05-9.17516994E-09 1.01590311E-07 3.33257199E-07-2.09900220E-08
 1 54 4.12262371E-08-1.47875774E-06-8.49502825E-07 2.21181825E-06 2.93143992E-07
 1 55-3.12235511E-08-6.52881678E-09-1.17992697E-07-1.24282037E-07-6.46243182E-08
 1 56 1.00146714E-07 2.19852560E-08 3.23160587E-07-9.31876894E-08 4.06693290E-07
 1 57 2.37815061E-07-2.52261053E-06 7.10159965E-07 1.27475282E-06 1.14543060E-06
 1 58-7.74616902E-08 1.58723479E-07-9.07371249E-08 1.05848839E-07 6.95943197E-09
 1 59 1.99700088E-08 2.79751378E-07 1.06995798E-06-1.23933565E-06-8.71199130E-07
 1 60-4.61548853E-07-7.51828171E-06-1.11613844E-07 6.01831020E-06-6.90950463E-07
 1 61 3.71029580E-07 3.15481266E-07 3.16256544E-07 1.76502856E-07-1.22177041E-08
 1 62 1.51111680E-07 1.54554624E-07 1.61485396E-06-2.19473516E-06 9.08307541E-07
 1 63 6.81372901E-09-3.19440926E-05-5.69405667E-06-3.37513309E-06-7.90331311E-06
 1 64-5.18141579E-07 2.82590586E-07-6.05816859E-07-6.44619358E-07-2.69613422E-07
 1 65-3.68068326E-07 6.51485914E-07-4.96892214E-06 6.16815975E-06-1.63010447E-05
 1 66 1.36578898E-05 1.37147303E-04 3.46665736E-05-5.71266311E-05-7.95213393E-05
 1 67 5.52497002E-06 1.01059689E-05-4.90801379E-06-2.23305438E-06-3.09214833E-06
 1 68-9.87220844E-06-1.37108288E-07-1.34745102E-07-1.51585891E-07-5.21182340E-07
 1 69-1.09641846E-08 1.29232694E-07-1.68951527E-07-9.03467365E-08-4.80206695E-07
 1 70 3.13089156E-07 4.30686610E-07-3.38603759E-08 9.27442445E-07 7.74446849E-06
 1 71 1.39118331E-06-8.45718312E-06 7.52896802E-06 1.39804984E-05-5.00083578E-06
 1 72 5.12786660E-06-8.45333406E-06-4.23759459E-05-1.32174433E-05-5.33418912E-05
 1 73 2.21424846E-05 2.82592071E-05-7.08234291E-08 3.77973231E-06 5.34654034E-08
 1 74-2.40495084E-07 1.64124366E-07 2.93792578E-07 1.92872715E-07 2.75227119E-07
 1 75-3.59512622E-07 3.15689588E-06 7.28206307E-08-4.49664610E-07 1.24458517E-06
 1 76 9.30545184E-07-4.50511421E-07-2.29363117E-06 5.17259256E-07-2.59072546E-07
 1 77 1.49534218E-06 9.18888356E-07 6.43284795E-07 3.66353587E-06-1.06679833E-06
 1 78 5.54999502E-06-5.59965101E-06 1.10721300E-05-5.91212151E-06-1.55481780E-05
 1 79 1.72491281E-05-1.63680529E-04 4.67501725E-05-5.37042644E-05
 2  1-2.71659488E-04-1.99106914E-04-7.11566651E-05 2.18018434E-06 7.60704009E-06
 2  2 3.23372851E-04 7.72382461E-05 6.10335594E-04-2.42768810E-04 3.46594562E-05
 2  3 1.73210771E-04-3.62451071E-05-1.15822654E-04-5.18834940E-05 6.55882154E-06
 2  4-3.38378442E-04 2.63475631E-04-1.30809344E-05-8.16787653E-05-1.07608736E-05
 2  5 2.85802811E-04 1.78302846E-04-6.87496175E-04 9.97863803E-04-3.18204494E-05
 2  6-4.96028333E-04-2.62738207E-04 3.40901835E-04-7.65553162E-05 2.33915680E-04
 2  7 3.00603128E-05 3.01884664E-05-9.26373574E-05-2.68335390E-04-8.91527493E-05
 2  8-3.86891730E-04-4.80210767E-07-2.30609192E-06-2.62603506E-07-4.89127919E-07
 2  9-8.96842626E-07 2.57115818E-05-2.13756348E-06 1.02398374E-05-1.73927660E-06
 2 10-3.81580218E-07-5.41994526E-08-9.42552898E-08-1.59459520E-07 1.79747356E-07
 2 11-7.78434706E-08 5.48700724E-08 5.25418725E-07 3.22950365E-09 5.88494114E-07
 2 12 4.88629893E-07-8.08883797E-06 1.22606898E-06 1.95504013E-07 2.80055424E-06
 2 13-9.39486469E-08-1.53982284E-08-1.17149237E-07-4.89723499E-08-1.52230967E-08
 2 14-2.59522838E-07-8.64600309E-09-5.20259125E-08 1.84377087E-07-1.81462801E-07
 2 15 9.13145224E-08 7.09802578E-07 5.38436718E-07-1.83856446E-07 8.45104299E-08
 2 16 2.69768982E-08 5.58785995E-08-5.11527246E-08-1.05542879E-07-2.58914945E-08
 2 17 1.45458468E-08-3.10511766E-07-1.18714606E-06-4.84925929E-07 8.07205386E-09
 2 18-1.57112141E-07 5.52786122E-06 9.60786038E-07-1.44491685E-06-1.93334399E-06
 2 19-4.47056993E-07-2.12218366E-07-1.72431804E-08-4.34752872E-08 5.30306790E-09
 2 20 1.68290702E-07-9.60994647E-08 1.77094274E-07-3.48438389E-07 7.51187493E-07
 2 21 6.46354551E-07-1.84607928E-05 1.21629882E-06-1.76741555E-06 6.02228744E-06
 2 22-2.47783836E-07 4.07727336E-08-4.01322731E-07 7.85408805E-09 1.15935704E-07
 2 23-2.54599674E-07-9.05329244E-08-1.01343997E-06 3.94667356E-07-7.55085451E-07
 2 24 4.52742536E-07 2.79128611E-05-9.59468879E-06 8.51044599E-06-3.36227343E-05
 2 25-2.77861205E-07 8.46328311E-08 6.16770026E-07-1.50522697E-07 3.47385041E-08
 2 26 2.25660283E-07-1.17341545E-06-5.93985605E-06 1.32962228E-06 4.67302378E-07
 2 27 1.11993793E-06 5.07865825E-05-1.86869106E-06-6.22342453E-05-4.28876713E-05
 2 28-2.25581982E-06 2.61583128E-06-2.04211015E-06-8.07901837E-07 1.89476925E-07
 2 29 4.82111847E-07 4.19069826E-07 4.01436925E-06-1.62625796E-06 3.66495980E-06
 2 30 3.42755720E-06-1.34978446E-04 1.23769165E-05-2.79039127E-05 1.37202173E-05
 2 31 2.24558229E-07-2.96419333E-06-3.83623590E-07-6.53236073E-07 9.06807927E-07
 2 32-2.98429218E-06-2.40627320E-06-1.34391348E-05-3.41889738E-06-3.61302839E-06
 2 33-4.45870703E-06 2.68101289E-04 6.52406477E-05-1.37722219E-04 7.20134698E-05
 2 34-2.81744188E-06 5.86373525E-06-4.16031663E-07-2.12157944E-06 5.89542637E-07
 2 35 2.66662962E-06-1.69446666E-06-1.14536156E-05-4.77659047E-06 1.22103750E-05
 2 36 1.21252380E-06-3.30400609E-05 3.84349759E-05-3.21450387E-04-8.79332629E-05
 2 37-4.10211443E-06-4.32371600E-06 3.07452565E-06 2.68467205E-06 4.69543544E-06
 2 38 5.99208318E-06 1.54798548E-06 2.43894457E-05 7.51342573E-07 9.07540829E-06
 2 39 2.93989460E-06-3.62374435E-04-1.22317942E-05 1.27595341E-04-5.22380094E-05
 2 40 7.24109768E-06-1.65525253E-05 7.80482855E-07-2.47246812E-06 1.34562575E-06
 2 41-6.33314597E-06-1.44357760E-05-8.64164796E-05 3.31699540E-05-6.90368066E-06
 2 42-3.63254878E-06 1.12242531E-03-2.04077355E-04-3.11148673E-04-5.05412042E-04
 2 43-2.55847620E-05 2.89201637E-05-5.47186673E-06-1.64006648E-06 5.16904221E-06
 2 44 2.10204657E-05 9.10681134E-06-6.51259782E-05-3.44992439E-06 4.83977568E-05
 2 45 5.24294093E-05-7.19036202E-04 1.37439087E-04-7.78619572E-04-3.05054778E-04
 2 46-1.02672221E-05 7.95592687E-05-2.05842005E-06-5.50675013E-05-4.30641399E-06
 2 47-4.19893370E-05 9.74952753E-03 1.22586826E-04-6.04983473E-05 1.55219660E-04
 2 48 1.60722930E-04 3.46329503E-03 4.59731986E-04-1.45660901E-03-9.87854376E-04
 2 49-1.44004170E-04-3.61364971E-04-3.27470447E-04 9.07467883E-05-7.41880498E-06
 2 50-6.98005847E-05 9.95577042E-01 2.72926820E-02 2.58737556E-04-7.13382185E-04
 2 51 3.40028221E-04-9.56874734E-03 4.82542319E-04-1.56109802E-03-3.05353774E-04
 2 52-2.35425132E-03-1.40558107E-03-1.87074546E-03-5.26518378E-04 6.70416639E-05
 2 53 1.50845965E-05-1.24718100E-07-4.85291785E-07-2.60111993E-07-2.11488527E-08
 2 54-1.42627975E-07 4.27169728E-06 1.68786927E-06-4.25931693E-06-1.71290608E-06
 2 55-2.62818299E-07-1.25617747E-07 1.00353309E-07 1.91063913E-07 4.65062839E-08
 2 56-1.06267630E-07-1.70194692E-07-5.10443605E-07 4.41416426E-07-3.77422263E-08
 2 57 4.70071904E-08 4.14594638E-06-1.86453773E-06-1.86302187E-06-2.07669282E-06
 2 58-5.21364897E-09-3.69306296E-07-8.04746148E-08-1.39443222E-07 2.69759219E-08
 2 59 8.91905271E-09-6.15572452E-07-2.04637665E-06-1.86300523E-09 1.16867971E-06
 2 60 5.57615951E-07 1.24010853E-05-9.87448061E-07-9.67229076E-06 1.55300741E-06
 2 61-6.72612693E-07-6.80785168E-07-5.08028628E-07-2.24709062E-07 1.43341074E-08
 2 62-2.22164536E-07-1.02249943E-06-4.86068218E-06 1.29350407E-06-9.51803747E-07
 2 63 1.66995461E-06 6.80811276E-05 7.41935372E-06-3.60123155E-06 1.65726419E-05
 2 64-6.29845218E-07-1.57457991E-06 3.78207993E-07 4.71151603E-07 5.56666229E-07
 2 65 4.46659316E-07-7.12727774E-05-5.87016704E-05-1.68740828E-05 6.97335636E-05
 2 66-1.16863832E-05 3.54675513E-04 1.81708919E-05-8.93199244E-05 1.04886406E-04
 2 67-5.18034691E-05-5.87498102E-05-1.52229029E-05-1.13373334E-06 2.08514964E-06
 2 68 3.08975165E-05 3.02991440E-07 5.24995035E-07 2.12066761E-08 2.27692079E-07
 2 69-3.16272446E-08-4.91875421E-08-7.58320643E-08 2.17020377E-07-4.39135964E-07
 2 70-8.99892843E-07 4.12266096E-08 1.78380244E-07-1.08492986E-06-7.30909077E-06
 2 71-3.76727325E-06 1.93273973E-05-1.09656321E-05-2.48306260E-05-4.44838039E-07
 2 72 8.51641801E-06 1.28973439E-05 1.01173150E-04-6.44028101E-05 6.59782494E-05
 2 73-1.01117235E-04 1.90362489E-03 4.68857996E-07-8.59835738E-06-5.22998981E-08
 2 74 1.70459360E-07-3.27558916E-07-2.32748955E-07-2.62492505E-07-7.76541238E-07
 2 75 3.53091990E-07-6.33540461E-06-1.19273311E-07 9.94384395E-07-9.37121750E-07
 2 76-1.59478559E-06 2.52163516E-07 3.42739213E-06-1.24747904E-06 6.96337259E-07
 2 77-1.86658872E-06-4.87734265E-06-1.83452692E-06-2.70824594E-06 8.16095519E-07
 2 78-1.17397467E-05-1.25298731E-05-4.26572987E-05 5.59799896E-06 3.22115993E-05
 2 79-4.22410493E-05-1.20551528E-04-2.00761823E-06 1.98886890E-04
 3  1-9.95746763E-01-2.80136647E-02 5.81783448E-04-5.85285053E-04-4.05659290E-04
 3  2 1.29877643E-02-1.70540592E-04 2.65790081E-04 3.63380580E-05 1.76277319E-03
 3  3 1.76252988E-03 1.76063964E-03 4.69205660E-05 1.20942400E-05-1.93995465E-05
 3  4 2.00908904E-04-2.54292632E-04 2.58764360E-06 6.29753270E-05 9.75730336E-05
 3  5-1.37468375E-03-3.62534537E-04 5.76892248E-04-8.41089911E-04 2.25587868E-04
 3  6 4.03415036E-04 2.81367674E-04-3.28343103E-04-2.44310476E-04 2.43353996E-04
 3  7-1.10322494E-04-2.35963958E-03-1.79165805E-04-2.38871007E-03 2.45522338E-04
 3  8 2.80113090E-04 1.42414117E-07 8.99216344E-08-1.37401955E-07 1.14841661E-07
 3  9-2.04348868E-07 2.83833422E-08 1.74210474E-06-6.40152892E-06-6.87422277E-06
 3 10 2.06499704E-07-6.61157532E-07 9.30472350E-07 2.85458222E-07 1.10519822E-07
 3 11 1.67456306E-07 3.44081351E-07 8.76774485E-07-1.59779600E-07 1.36670845E-07
 3 12-6.05906844E-07 2.06883683E-06-6.98850797E-07-3.34398641E-06 2.90426846E-06
 3 13 3.62029745E-07 4.97200899E-07 6.90018949E-08 3.24120251E-08-8.70913977E-08
 3 14-5.23777496E-09 1.83268431E-07 5.27011788E-07 6.90108228E-08-3.73926805E-07
 3 15-4.69261060E-09-3.82037794E-06 5.14765864E-08 9.29778766E-07 1.40322704E-06
 3 16 1.68048075E-07 1.66581066E-07 1.37551362E-07 5.09511864E-08-4.32100097E-08
 3 17 1.22459974E-07-1.75632041E-07-1.01885125E-06 5.82298670E-08-4.85074088E-07
 3 18-5.84614527E-07 1.59278841E-05 2.58591837E-06-5.55988028E-06-3.81244763E-06
 3 19-2.72231689E-08 1.25886281E-07-5.65614095E-08-2.52339514E-08-2.10691408E-07
 3 20 3.11379345E-07 2.59257632E-08 3.48617230E-07 4.35284663E-07 4.44829361E-07
 3 21 1.04485505E-06-1.97434665E-05-5.57564704E-06 8.04432132E-06-2.48458404E-05
 3 22-4.25471535E-08-1.69058790E-07-1.37313958E-07 2.58571589E-07-7.17617612E-08
 3 23 2.32541104E-07 7.67202420E-07 3.90871686E-06 5.11228912E-07-7.07858617E-07
 3 24-3.76406929E-07-4.01410480E-05-4.31002894E-07 4.00187434E-05 3.86343026E-05
 3 25 1.08543294E-06 2.59341432E-07-1.22668638E-06-2.42066301E-07-5.03218071E-07
 3 26-1.50304152E-06-5.24671589E-07-4.62139950E-06-1.23704571E-06-1.60255987E-06
 3 27-2.86391696E-06 1.17856863E-04 1.89106892E-05-3.23354228E-05 3.92149927E-05
 3 28-6.96095568E-07 1.27699954E-06 1.39333478E-06 2.20475829E-07 2.57358996E-09
 3 29 1.78601663E-06 1.28125615E-06 5.15829744E-06-2.09330257E-07 2.87699829E-06
 3 30 7.85835191E-07-9.30670087E-05 2.03546814E-05-7.82260768E-05 3.82801681E-06
 3 31 1.69218558E-06-2.27396605E-07 6.50155698E-08 5.72402256E-07-1.22674606E-06
 3 32-1.32459875E-07 3.69751057E-06 1.55130451E-05-5.04116032E-07-1.45535961E-06
 3 33-3.46501581E-06-1.73421343E-04-2.14880325E-05 1.71016550E-04 5.72284754E-05
 3 34 4.70528663E-06-6.87001543E-06 3.65316620E-06 2.92763512E-06-2.49294133E-07
 3 35-1.82352949E-06-2.78105528E-06-1.78868295E-05 2.11699791E-06-1.07521162E-05
 3 36-3.58745973E-06 4.13149676E-04-6.06097247E-05 6.08652752E-05-1.09259833E-04
 3 37-2.66131248E-06 8.64962606E-06 4.27298443E-07-8.66069141E-07-8.79208988E-07
 3 38 6.86126803E-06 3.19716862E-06 2.58692069E-05 3.16736385E-06 1.49708503E-05
 3 39 1.19750157E-05-5.64431318E-04-1.29214954E-04 6.95728860E-05-2.29348412E-04
 3 40 3.47952307E-06-8.61735340E-06-1.34375005E-06 3.35173936E-06-2.81062671E-06
 3 41-6.48430768E-06 4.97350266E-06 2.76230231E-05-1.70515292E-06-2.41075254E-05
 3 42 8.84959815E-06-4.33413700E-05-8.53748234E-05 6.24046386E-04 6.94711137E-05
 3 43 1.08428274E-05-3.27291370E-06-3.51566358E-06-4.89679702E-06-3.08008781E-06
 3 44-1.59741866E-05-6.96302263E-06-9.21877715E-05 1.15259530E-05-1.98691839E-05
 3 45-5.04826416E-06 1.32141658E-03 1.42367262E-04-4.69727988E-04 1.03139283E-04
 3 46-1.21739471E-05 4.21952133E-05-7.67455717E-06-1.27824917E-05 1.34215019E-05
 3 47 1.03188943E-05-3.09255888E-05 1.61276141E-04-3.91366919E-05 4.89821683E-05
 3 48-2.36965723E-05-3.16877895E-03 5.59367507E-05 5.53506780E-04 1.39191740E-03
 3 49 3.89070724E-05-5.19710705E-05 1.14221722E-05 3.64809993E-05 7.05850981E-06
 3 50-2.38134913E-05-2.67175583E-04 9.76515992E-05 4.14515807E-05-4.26454055E-05
 3 51-1.48762239E-04 7.75251022E-04-9.16644905E-04 2.36228951E-03 1.51707796E-03
 3 52-4.26277586E-06-8.46092492E-05-5.66149346E-05 9.35658123E-05-2.71433855E-05
 3 53 1.21135936E-04-6.05775494E-08-4.03824611E-07 1.40710214E-07-6.72918262E-08
 3 54-1.47277541E-07-9.86758074E-07 1.18858800E-06 9.68174569E-07 1.18748223E-07
 3 55-2.43831888E-07 3.11835377E-08 8.29782629E-08-2.20552415E-07 5.06775964E-08
 3 56-1.38086486E-07-1.81137658E-07-5.85812459E-07 2.26872321E-08-9.00841932E-08
 3 57 1.50704655E-07 1.82644535E-06-1.43308607E-06 1.58751625E-06-2.98606389E-07
 3 58-3.19120857E-07 6.48429417E-08-1.64698355E-07 1.72856468E-08 1.26728997E-07
 3 59-2.25082210E-08 8.21066338E-08 5.59801112E-07-1.84809695E-07 4.29181070E-07
 3 60-4.26062786E-07-1.25513454E-05-3.80538609E-07 3.97757787E-06-3.99195832E-06
 3 61-7.53322462E-08-5.67933513E-08 3.67612510E-08-2.01802206E-08-1.30106947E-08
 3 62 2.63241282E-07 1.42007880E-06 2.52380013E-06 5.62397587E-07-3.30563363E-06
 3 63 3.40970943E-07-1.35078529E-05-1.02167256E-06-1.58927083E-05-2.07052796E-05
 3 64 1.87087115E-06 4.27571217E-06-1.31098653E-06-1.58444786E-06-1.61285368E-06
 3 65-1.61559681E-06 3.45538229E-06 3.35725703E-06 5.31313014E-06-6.12789295E-06
 3 66 5.50347985E-06 1.13948347E-05-5.26054012E-05 6.87814343E-05-1.51298884E-04
 3 67 1.69456847E-06 7.59931774E-06-6.03376640E-06 1.13045696E-05-8.82628224E-06
 3 68 1.10873569E-05 4.68773380E-07 9.64884113E-07-3.53413115E-07-2.19701157E-06
 3 69-2.00805593E-08-1.36162426E-07 2.44852609E-07 7.20616795E-07-6.30368271E-07
 3 70-2.01943468E-07-3.16734174E-07 7.92171756E-07 1.48508252E-06 1.42156876E-05
 3 71-3.96773628E-06-1.02498651E-05 7.05019881E-06-6.06284751E-06-8.71148614E-06
 3 72-6.15179873E-05 2.14644134E-05 4.51897238E-05-3.88719746E-05-2.62993127E-04
 3 73 1.48111274E-04 5.74121146E-04 2.76333133E-07-1.83820740E-07-1.28993975E-07
 3 74-4.51079100E-07-9.43082197E-08 6.02669318E-08-2.48073154E-07-1.20111951E-06
 3 75 2.98700179E-09-4.81671058E-07-6.84844093E-08 8.64184107E-07 5.59758737E-07
 3 76-1.26757297E-07 2.29168507E-07-3.40265178E-07 3.38426045E-07-4.58429843E-07
 3 77 8.51247719E-08 5.72864658E-06 2.39283677E-07 2.44137368E-06-7.07069046E-07
 3 78-9.69561685E-06-3.57549159E-06-1.52095556E-05-7.60737170E-06-3.52446737E-05
 3 79 3.94681705E-05-2.17583923E-04-7.22074406E-05-2.46826701E-03
 4  1-4.12957245E-07-8.20843923E-06-3.73174143E-06 6.92518946E-06 1.16017812E-05
 4  2 1.81215473E-04-4.04724222E-05 3.47969159E-05 5.71809862E-05-2.67339179E-06
 4  3-1.35644567E-06 5.46030203E-06-7.24936873E-08-8.54897161E-07 4.57212402E-06
 4  4-1.20492857E-05-6.18125639E-05 2.64920718E-05-1.37468802E-06-8.45455722E-06
 4  5 5.07558972E-04-2.34649675E-04 3.72544323E-04 5.95304288E-05-2.07039942E-05
 4  6 1.06804723E-05-3.39123098E-05-2.29923573E-05 8.31142396E-06 2.17428568E-06
 4  7-7.01534398E-06-8.39720290E-06-3.96332758E-06-4.04036107E-06-2.92311761E-05
 4  8 3.81974163E-05-3.75098812E-07-2.18036863E-06-2.95537757E-07-3.13686287E-07
 4  9-1.12522622E-06 2.71408097E-05-2.63353975E-06 6.39446407E-06-9.76554711E-06
 4 10-2.03980338E-07-6.38695148E-07 8.75091706E-07 1.04343558E-07 3.79458970E-07
 4 11 1.05667772E-07 4.23691854E-07 1.28784998E-06-6.06242212E-08 6.17047446E-07
 4 12-1.21627774E-07-5.65154599E-06 4.48148651E-07-2.53147715E-06 5.40457319E-06